SG44HfN10_0GPa_conventionalcell\(2)     
   1.00000000000000     
     7.4734380173839972    0.0000000000000000    0.0000000000000000
     0.0000000000000000    7.4325789676428915    0.0000000000000000
     0.0000000000000000    0.0000000000000000    3.7553799216435819
   Hf   N 
     2    20
Direct
  0.5000000000000000  0.5000000000000000  0.7208214256009964
  0.0000000000000000  0.0000000000000000  0.2208214245572312
  0.8094766095235539  0.1925060255964917  0.8973195925718043
  0.1905233904764458  0.8074939744035083  0.8973195925718043
  0.8094766095235539  0.8074939744035083  0.8973195925718043
  0.1905233904764458  0.1925060255964917  0.8973195925718043
  0.3094766091837742  0.6925060277609896  0.3973195923893124
  0.6905233908162259  0.3074939722390105  0.3973195923893124
  0.3094766091837742  0.3074939722390105  0.3973195923893124
  0.6905233908162259  0.6925060277609896  0.3973195923893124
  0.8094881513519105  0.1925166044540515  0.5442663031543655
  0.1905118486480894  0.8074833805459508  0.5442663031543655
  0.8094881513519105  0.8074833805459508  0.5442663031543655
  0.1905118486480894  0.1925166044540515  0.5442663031543655
  0.3094881513824183  0.6925166146244107  0.0442663030011245
  0.6905118486175816  0.3074833853755890  0.0442663030011245
  0.3094881513824183  0.3074833853755890  0.0442663030011245
  0.6905118486175816  0.6925166146244107  0.0442663030011245
  0.0000000000000000  0.5000000000000000  0.3686466417094588
  0.5000000000000000  0.0000000000000000  0.8686466052149323
  0.0000000000000000  0.5000000000000000  0.0721884588590335
  0.5000000000000000  0.0000000000000000  0.5721885655919176
